************************************************************************
file with basedata            : j905_.bas
initial value random generator: 2026369717
************************************************************************
projects                      :  1
jobs (incl. supersource/sink ):  92
horizon                       :  540
RESOURCES
  - renewable                 :  4   R
  - nonrenewable              :  0   N
  - doubly constrained        :  0   D
************************************************************************
PROJECT INFORMATION:
pronr.  #jobs rel.date duedate tardcost  MPM-Time
    1     90      0       90       81       90
************************************************************************
PRECEDENCE RELATIONS:
jobnr.    #modes  #successors   successors
   1        1          3           2   3   4
   2        1          3           8  15  17
   3        1          3           5   6  12
   4        1          3           9  24  31
   5        1          3           7  10  59
   6        1          2           7  61
   7        1          2          18  49
   8        1          1          57
   9        1          2          30  82
  10        1          3          11  13  20
  11        1          2          40  54
  12        1          3          14  36  66
  13        1          1          34
  14        1          3          26  39  44
  15        1          2          16  80
  16        1          3          19  21  45
  17        1          3          22  46  51
  18        1          1          28
  19        1          1          52
  20        1          1          23
  21        1          2          27  37
  22        1          3          55  61  84
  23        1          3          25  29  33
  24        1          1          35
  25        1          1          60
  26        1          1          89
  27        1          3          38  56  64
  28        1          1          75
  29        1          1          80
  30        1          1          42
  31        1          1          32
  32        1          3          50  53  76
  33        1          2          41  43
  34        1          1          38
  35        1          1          50
  36        1          3          47  63  67
  37        1          2          44  57
  38        1          1          74
  39        1          1          78
  40        1          1          53
  41        1          2          48  75
  42        1          2          52  70
  43        1          1          52
  44        1          1          50
  45        1          2          57  79
  46        1          1          65
  47        1          2          71  77
  48        1          1          72
  49        1          1          71
  50        1          1          51
  51        1          1          79
  52        1          1          89
  53        1          2          62  83
  54        1          1          69
  55        1          1          58
  56        1          1          70
  57        1          2          73  91
  58        1          1          86
  59        1          1          85
  60        1          1          68
  61        1          1          62
  62        1          1          70
  63        1          1          74
  64        1          1          86
  65        1          1          80
  66        1          1          84
  67        1          1          90
  68        1          1          69
  69        1          1          79
  70        1          2          72  87
  71        1          1          73
  72        1          1          78
  73        1          1          83
  74        1          1          82
  75        1          1          88
  76        1          2          81  84
  77        1          1          78
  78        1          1          81
  79        1          1          91
  80        1          1          87
  81        1          1          85
  82        1          1          89
  83        1          1          87
  84        1          1          86
  85        1          1          88
  86        1          2          88  90
  87        1          1          90
  88        1          1          91
  89        1          1          92
  90        1          1          92
  91        1          1          92
  92        1          0        
************************************************************************
REQUESTS/DURATIONS:
jobnr. mode duration  R 1  R 2  R 3  R 4
------------------------------------------------------------------------
  1      1     0       0    0    0    0
  2      1     3       0    9    0    4
  3      1     1       0    0    9    0
  4      1     9      10    4    3    4
  5      1     9       6    0    4    0
  6      1     9       0    8    0    0
  7      1     5       1    0    0   10
  8      1    10       3    0    0    5
  9      1     8       0    3    3    0
 10      1     6       0    0    2    9
 11      1    10       6    0    0   10
 12      1     6       1    2    0    0
 13      1     5       0    0   10    0
 14      1    10       4    9    6    0
 15      1     3       3    9    4    0
 16      1    10       0    8    0    0
 17      1     4       0    0    5    7
 18      1     9       9    0    0    0
 19      1     5       0    4    0    0
 20      1     2       1    0    0    0
 21      1     1       3    8    0    5
 22      1     8       7    7    0    5
 23      1     6       6    7   10    6
 24      1     5       0    9    0    0
 25      1     2       0    0   10    3
 26      1     6       0    1    4    0
 27      1     4       0    0    0    8
 28      1     3       4    0    9    0
 29      1     5       0    2    5    8
 30      1     7       0    6    0    0
 31      1     4       3    5    5    9
 32      1     6       0    3    8    1
 33      1     7       0    0    6    7
 34      1     8       0    0    2    0
 35      1     3       9    7    0    4
 36      1     9       7    0    0   10
 37      1    10       0    0    7    0
 38      1     5       8    0    0    0
 39      1     7       0    0    0    5
 40      1     9       0    0    9    4
 41      1     6       0    0    0    4
 42      1    10       0    7    2    0
 43      1     2       1    3    0    6
 44      1     2       0    8    0    9
 45      1     8       2    0    0   10
 46      1     6       9    2    0    0
 47      1     4       3    0    1    0
 48      1     7       0    9    0    9
 49      1     6       8    0    0    0
 50      1    10       1    0    0    5
 51      1     3       3    0    0    6
 52      1    10       4    9    4    8
 53      1     8      10    0    0    0
 54      1     3       1    1    0    0
 55      1     1      10    0    0    5
 56      1     4       0    0    0    8
 57      1    10       0   10    0    5
 58      1     8       2    9    2    0
 59      1     3       3    0    9    9
 60      1     8       1    5   10    0
 61      1     6       0    3    0    1
 62      1     6       7   10    0    8
 63      1     8       2    0    2    3
 64      1    10       0    0    0    7
 65      1     4       0    0    7    1
 66      1     7       0    7    9    0
 67      1     2       7    0    0    8
 68      1     8       4    0    0    3
 69      1     3       5    8    0    3
 70      1     1       0    3    0    0
 71      1     3       2    0    0    0
 72      1     8       0    7    0    0
 73      1     1       9    0    8    3
 74      1     4       5    0    0    0
 75      1     6       2    0    4    1
 76      1     5       0    0    8    1
 77      1    10       0    9    0    6
 78      1     4       0    7    0    4
 79      1    10       3    0    7    0
 80      1     2       0    4    0    1
 81      1    10       0    5    3    3
 82      1     7       0   10    2    0
 83      1     8       3    3    0    0
 84      1     2       3    0    0    4
 85      1    10       5    0    0    0
 86      1     5       1    0    0    0
 87      1     5       5    7    4    0
 88      1     5       0    0    0    7
 89      1    10       0    0    9    4
 90      1     9       8    5    0    2
 91      1     3       1    8    0    0
 92      1     0       0    0    0    0
************************************************************************
RESOURCEAVAILABILITIES:
  R 1  R 2  R 3  R 4
   19   20   18   19
************************************************************************
